unsat
( c1004
  c1005
  c1006
  c1007
  c1008
  c1009
  c1010
  c1011
  c1012
  c1013
  c1014
  c1015
  c1016
  c1017
  c1018
  c1019
  c102
  c1028
  c1030
  c1037
  c1040
  c1047
  c1048
  c1049
  c1053
  c1056
  c1058
  c1059
  c106
  c1062
  c1066
  c1069
  c1070
  c1072
  c1078
  c1080
  c1086
  c1087
  c1088
  c1089
  c109
  c1090
  c1091
  c1092
  c1093
  c1094
  c1095
  c1096
  c1097
  c1098
  c1099
  c1100
  c1101
  c111
  c1110
  c1112
  c112
  c1123
  c1124
  c1125
  c1129
  c1130
  c1131
  c1135
  c1138
  c1140
  c1141
  c1144
  c1148
  c1151
  c1152
  c1154
  c1160
  c1162
  c1168
  c1169
  c1170
  c1171
  c1172
  c1173
  c1174
  c1175
  c1176
  c1177
  c1178
  c1179
  c1180
  c1181
  c1182
  c1183
  c1192
  c1194
  c120
  c1201
  c1204
  c1211
  c1212
  c1213
  c1216
  c1217
  c1220
  c1222
  c1223
  c1226
  c1230
  c1233
  c1234
  c1236
  c124
  c1242
  c1244
  c1250
  c1251
  c1252
  c1253
  c1254
  c1255
  c1256
  c1257
  c1258
  c1259
  c1260
  c1261
  c1262
  c1263
  c1264
  c1265
  c127
  c1273
  c1274
  c1284
  c1288
  c1292
  c1296
  c13
  c1300
  c1304
  c1308
  c131
  c1312
  c1316
  c1320
  c1324
  c1328
  c1329
  c133
  c1330
  c1331
  c1332
  c1336
  c1339
  c1340
  c1345
  c1347
  c1348
  c1351
  c1352
  c1353
  c1357
  c1358
  c1359
  c1361
  c1362
  c1363
  c1364
  c1365
  c1366
  c1380
  c1387
  c1389
  c1393
  c1395
  c1396
  c1404
  c1405
  c1406
  c1407
  c1408
  c1409
  c141
  c1410
  c1411
  c1412
  c1413
  c1414
  c1415
  c1416
  c1417
  c1418
  c1423
  c1424
  c1428
  c1432
  c1436
  c144
  c1440
  c1444
  c1448
  c1452
  c1456
  c1460
  c1464
  c1466
  c1467
  c1469
  c147
  c1476
  c1477
  c1479
  c148
  c1486
  c1487
  c1488
  c149
  c1491
  c1492
  c1495
  c1498
  c15
  c1500
  c1501
  c1506
  c151
  c1510
  c1512
  c1516
  c1517
  c1518
  c152
  c1525
  c1527
  c1530
  c1533
  c1534
  c1535
  c1536
  c1537
  c1538
  c1539
  c154
  c1540
  c1541
  c1542
  c1543
  c1544
  c1545
  c1546
  c1547
  c1548
  c155
  c1556
  c1557
  c1558
  c1566
  c1567
  c157
  c1570
  c1571
  c1576
  c1577
  c1578
  c158
  c1581
  c1582
  c1585
  c1588
  c1590
  c1591
  c1594
  c1598
  c1599
  c160
  c1600
  c1607
  c1609
  c161
  c1612
  c1615
  c1616
  c1617
  c1618
  c1619
  c1620
  c1621
  c1622
  c1623
  c1624
  c1625
  c1626
  c1627
  c1628
  c1629
  c1630
  c1638
  c1639
  c1641
  c1648
  c1651
  c1652
  c1658
  c1659
  c1660
  c1663
  c1664
  c1667
  c1670
  c1673
  c1676
  c1680
  c1681
  c1682
  c1689
  c1691
  c1694
  c1697
  c1698
  c1699
  c170
  c1700
  c1701
  c1702
  c1703
  c1704
  c1705
  c1706
  c1707
  c1708
  c1709
  c171
  c1710
  c1711
  c1712
  c1720
  c1721
  c1722
  c173
  c1730
  c1731
  c1733
  c1734
  c1740
  c1741
  c1742
  c1745
  c1746
  c1749
  c1752
  c1754
  c1755
  c1758
  c1759
  c1763
  c1764
  c1765
  c1771
  c1773
  c1776
  c1779
  c1780
  c1781
  c1782
  c1783
  c1784
  c1785
  c1786
  c1787
  c1788
  c1789
  c1790
  c1791
  c1792
  c1793
  c1794
  c1802
  c1803
  c1805
  c1812
  c1813
  c1815
  c1822
  c1823
  c1824
  c1828
  c183
  c1831
  c1834
  c1836
  c1837
  c1840
  c1841
  c1845
  c1846
  c1847
  c1853
  c1855
  c1858
  c186
  c1861
  c1862
  c1863
  c1864
  c1865
  c1866
  c1867
  c1868
  c1869
  c1870
  c1871
  c1872
  c1873
  c1874
  c1875
  c1876
  c1884
  c1885
  c1887
  c1894
  c1895
  c1897
  c1904
  c1905
  c1906
  c1909
  c1910
  c1913
  c1916
  c1918
  c1919
  c192
  c1922
  c1923
  c1927
  c1928
  c1929
  c1935
  c1937
  c1940
  c1943
  c1944
  c1945
  c1946
  c1947
  c1948
  c1949
  c1950
  c1951
  c1952
  c1953
  c1954
  c1955
  c1956
  c1957
  c1958
  c196
  c1966
  c1967
  c1977
  c1981
  c1985
  c1989
  c199
  c1993
  c1997
  c20
  c2001
  c2005
  c2009
  c201
  c2013
  c2017
  c2021
  c2024
  c2025
  c2026
  c2028
  c2029
  c2032
  c2033
  c2038
  c2039
  c204
  c2040
  c2041
  c2042
  c2043
  c2044
  c2045
  c2051
  c2052
  c2053
  c2055
  c2058
  c2059
  c2064
  c2066
  c2068
  c2070
  c2072
  c2073
  c209
  c2098
  c2099
  c21
  c2100
  c2101
  c2102
  c2103
  c2104
  c2105
  c2106
  c2107
  c2108
  c2109
  c2110
  c2111
  c2112
  c2113
  c2114
  c2115
  c2116
  c2117
  c2121
  c2125
  c2129
  c213
  c2133
  c2137
  c2141
  c2145
  c2149
  c215
  c2153
  c2157
  c2159
  c2160
  c2169
  c2171
  c2179
  c2180
  c2185
  c2188
  c2190
  c2191
  c2194
  c2199
  c22
  c2203
  c2205
  c2206
  c221
  c2211
  c2212
  c2218
  c2220
  c2223
  c2226
  c2227
  c2228
  c2229
  c223
  c2230
  c2231
  c2232
  c2233
  c2234
  c2235
  c2236
  c2237
  c2238
  c2239
  c2240
  c2241
  c2249
  c2250
  c2259
  c2261
  c2269
  c2270
  c2274
  c2275
  c2278
  c2280
  c2281
  c2284
  c2287
  c2288
  c229
  c2293
  c2294
  c23
  c230
  c2300
  c2302
  c2305
  c2308
  c2309
  c231
  c2310
  c2311
  c2312
  c2313
  c2314
  c2315
  c2316
  c2317
  c2318
  c2319
  c2320
  c2321
  c2322
  c2323
  c233
  c2331
  c2332
  c234
  c2343
  c2344
  c2347
  c2351
  c2352
  c2357
  c236
  c2360
  c2362
  c2363
  c2366
  c2369
  c237
  c2370
  c2375
  c2376
  c2382
  c2384
  c2387
  c239
  c2390
  c2391
  c2392
  c2393
  c2394
  c2395
  c2396
  c2397
  c2398
  c2399
  c24
  c240
  c2400
  c2401
  c2402
  c2403
  c2404
  c2405
  c2413
  c2414
  c242
  c2423
  c2427
  c243
  c2433
  c2434
  c2435
  c2438
  c2439
  c2442
  c2444
  c2445
  c2448
  c2451
  c2452
  c2457
  c2458
  c2464
  c2466
  c2469
  c2472
  c2473
  c2474
  c2475
  c2476
  c2477
  c2478
  c2479
  c2480
  c2481
  c2482
  c2483
  c2484
  c2485
  c2486
  c2487
  c2495
  c2496
  c25
  c2505
  c2507
  c2515
  c2516
  c252
  c2521
  c2524
  c2526
  c2527
  c253
  c2530
  c2533
  c2534
  c2539
  c2540
  c2546
  c2548
  c255
  c2551
  c2554
  c2555
  c2556
  c2557
  c2558
  c2559
  c2560
  c2561
  c2562
  c2563
  c2564
  c2565
  c2566
  c2567
  c2568
  c2569
  c2577
  c2578
  c2587
  c2591
  c2597
  c2598
  c26
  c2603
  c2606
  c2608
  c2609
  c2612
  c2615
  c2616
  c2621
  c2622
  c2628
  c2630
  c2633
  c2636
  c2637
  c2638
  c2639
  c2640
  c2641
  c2642
  c2643
  c2644
  c2645
  c2646
  c2647
  c2648
  c2649
  c265
  c2650
  c2651
  c2659
  c2660
  c2670
  c2674
  c2678
  c268
  c2682
  c2686
  c2690
  c2694
  c2698
  c27
  c2702
  c2706
  c2710
  c2714
  c2715
  c2721
  c2722
  c2723
  c2724
  c2732
  c2734
  c274
  c2746
  c2748
  c2761
  c2763
  c278
  c2791
  c2792
  c2793
  c2794
  c2795
  c2796
  c2797
  c2798
  c2799
  c28
  c2800
  c2801
  c2802
  c2803
  c2804
  c2805
  c2806
  c2807
  c2808
  c2809
  c281
  c2814
  c2818
  c2822
  c2826
  c283
  c2830
  c2834
  c2838
  c284
  c2842
  c2846
  c2850
  c2852
  c2853
  c2862
  c2864
  c2872
  c2873
  c2881
  c2883
  c2884
  c2886
  c2887
  c2892
  c2896
  c2898
  c29
  c2903
  c2904
  c2905
  c2911
  c2913
  c2914
  c2915
  c2919
  c2920
  c2921
  c2922
  c2923
  c2924
  c2925
  c2926
  c2927
  c2928
  c2929
  c2930
  c2931
  c2932
  c2933
  c2934
  c2942
  c2943
  c295
  c2952
  c2954
  c296
  c2962
  c2963
  c297
  c2971
  c2973
  c2974
  c2976
  c2977
  c2980
  c2985
  c2986
  c2987
  c2993
  c2995
  c2996
  c2997
  c30
  c3001
  c3002
  c3003
  c3004
  c3005
  c3006
  c3007
  c3008
  c3009
  c3010
  c3011
  c3012
  c3013
  c3014
  c3015
  c3016
  c3024
  c3025
  c303
  c3034
  c3036
  c3044
  c3045
  c305
  c3053
  c3055
  c3056
  c3059
  c3062
  c3067
  c3068
  c3069
  c3075
  c3077
  c3078
  c3079
  c3083
  c3084
  c3085
  c3086
  c3087
  c3088
  c3089
  c3090
  c3091
  c3092
  c3093
  c3094
  c3095
  c3096
  c3097
  c3098
  c31
  c3106
  c3107
  c311
  c3116
  c3119
  c312
  c3126
  c3127
  c313
  c3135
  c3137
  c3138
  c3141
  c3144
  c3149
  c315
  c3150
  c3151
  c3157
  c3159
  c316
  c3160
  c3161
  c3165
  c3166
  c3167
  c3168
  c3169
  c3170
  c3171
  c3172
  c3173
  c3174
  c3175
  c3176
  c3177
  c3178
  c3179
  c318
  c3180
  c3188
  c3189
  c319
  c3198
  c32
  c3200
  c3208
  c3209
  c321
  c3217
  c3219
  c322
  c3220
  c3222
  c3223
  c3226
  c3228
  c3231
  c3232
  c3233
  c3239
  c324
  c3241
  c3242
  c3243
  c3247
  c3248
  c3249
  c325
  c3250
  c3251
  c3252
  c3253
  c3254
  c3255
  c3256
  c3257
  c3258
  c3259
  c3260
  c3261
  c3262
  c3270
  c3271
  c3280
  c3282
  c3290
  c3291
  c3299
  c33
  c3301
  c3302
  c3305
  c3308
  c3313
  c3314
  c3315
  c3321
  c3323
  c3324
  c3325
  c3329
  c3330
  c3331
  c3332
  c3333
  c3334
  c3335
  c3336
  c3337
  c3338
  c3339
  c334
  c3340
  c3341
  c3342
  c3343
  c3344
  c335
  c3352
  c3353
  c3363
  c3367
  c337
  c3371
  c3375
  c3379
  c3383
  c3387
  c3391
  c3395
  c3399
  c34
  c3403
  c3407
  c3408
  c3409
  c3416
  c3417
  c3428
  c3429
  c344
  c3442
  c3443
  c3450
  c3452
  c3454
  c3456
  c3466
  c3468
  c347
  c3470
  c3472
  c3474
  c3475
  c3483
  c3484
  c3485
  c3486
  c3487
  c3488
  c3489
  c3490
  c3491
  c3492
  c3493
  c3494
  c3495
  c3496
  c3497
  c3498
  c3499
  c35
  c350
  c3500
  c3501
  c3502
  c3503
  c3507
  c3511
  c3515
  c3519
  c3523
  c3527
  c3531
  c3535
  c3539
  c354
  c3543
  c3546
  c355
  c3555
  c356
  c3565
  c3574
  c3576
  c3577
  c3579
  c3580
  c3585
  c3589
  c3594
  c36
  c360
  c3603
  c3606
  c3608
  c3612
  c3613
  c3614
  c3615
  c3616
  c3617
  c3618
  c3619
  c3620
  c3621
  c3622
  c3623
  c3624
  c3625
  c3626
  c3627
  c363
  c3636
  c3645
  c365
  c3655
  c366
  c3664
  c3666
  c3667
  c3669
  c3670
  c3676
  c3688
  c3689
  c3690
  c3694
  c3695
  c3696
  c3697
  c3698
  c3699
  c37
  c3700
  c3701
  c3702
  c3703
  c3704
  c3705
  c3706
  c3707
  c3708
  c3709
  c3718
  c3727
  c373
  c3737
  c3746
  c3748
  c3749
  c3751
  c3752
  c3758
  c377
  c3770
  c3771
  c3772
  c3776
  c3777
  c3778
  c3779
  c3780
  c3781
  c3782
  c3783
  c3784
  c3785
  c3786
  c3787
  c3788
  c3789
  c379
  c3790
  c3791
  c38
  c3800
  c3809
  c3819
  c3828
  c3830
  c3831
  c3834
  c3840
  c385
  c3852
  c3853
  c3854
  c3858
  c3859
  c3860
  c3861
  c3862
  c3863
  c3864
  c3865
  c3866
  c3867
  c3868
  c3869
  c387
  c3870
  c3871
  c3872
  c3873
  c3882
  c3891
  c3901
  c3910
  c3912
  c3913
  c3915
  c3916
  c3922
  c393
  c3931
  c3934
  c3935
  c3936
  c394
  c3940
  c3941
  c3942
  c3943
  c3944
  c3945
  c3946
  c3947
  c3948
  c3949
  c395
  c3950
  c3951
  c3952
  c3953
  c3954
  c3955
  c3964
  c397
  c3973
  c398
  c3983
  c3992
  c3994
  c3995
  c3997
  c3998
  c4
  c400
  c4004
  c401
  c4016
  c4017
  c4018
  c4022
  c4023
  c4024
  c4025
  c4026
  c4027
  c4028
  c4029
  c403
  c4030
  c4031
  c4032
  c4033
  c4034
  c4035
  c4036
  c4037
  c404
  c4045
  c4046
  c4056
  c406
  c4060
  c4064
  c4068
  c407
  c4072
  c4076
  c4080
  c4084
  c4088
  c4092
  c4096
  c4100
  c416
  c417
  c4178
  c4179
  c4180
  c4181
  c4182
  c4183
  c4184
  c4185
  c4186
  c4187
  c4188
  c4189
  c419
  c4190
  c4191
  c4192
  c4193
  c4194
  c4195
  c42
  c4200
  c4204
  c4208
  c4212
  c4216
  c4220
  c4224
  c4228
  c4232
  c4236
  c4239
  c4248
  c4258
  c426
  c4267
  c4269
  c4278
  c4282
  c4287
  c429
  c4299
  c4300
  c4301
  c4302
  c4305
  c4306
  c4307
  c4308
  c4309
  c4310
  c4311
  c4312
  c4313
  c4314
  c4315
  c4316
  c4317
  c4318
  c4319
  c432
  c4320
  c4329
  c4338
  c4348
  c4357
  c4359
  c436
  c4369
  c437
  c438
  c4381
  c4382
  c4383
  c4384
  c4387
  c4388
  c4389
  c4390
  c4391
  c4392
  c4393
  c4394
  c4395
  c4396
  c4397
  c4398
  c4399
  c4400
  c4401
  c4402
  c4411
  c442
  c4420
  c4430
  c4439
  c4441
  c445
  c4451
  c4463
  c4464
  c4465
  c4466
  c4469
  c447
  c4470
  c4471
  c4472
  c4473
  c4474
  c4475
  c4476
  c4477
  c4478
  c4479
  c448
  c4480
  c4481
  c4482
  c4483
  c4484
  c4493
  c4502
  c4512
  c4521
  c4523
  c4533
  c4545
  c4546
  c4547
  c4548
  c455
  c4551
  c4552
  c4553
  c4554
  c4555
  c4556
  c4557
  c4558
  c4559
  c4560
  c4561
  c4562
  c4563
  c4564
  c4565
  c4566
  c4575
  c4584
  c459
  c4594
  c46
  c4603
  c4605
  c461
  c4615
  c4627
  c4628
  c4629
  c4630
  c4633
  c4634
  c4635
  c4636
  c4637
  c4638
  c4639
  c4640
  c4641
  c4642
  c4643
  c4644
  c4645
  c4646
  c4647
  c4648
  c4657
  c4666
  c467
  c4676
  c4685
  c4687
  c469
  c4697
  c4709
  c4710
  c4711
  c4712
  c4715
  c4716
  c4717
  c4718
  c4719
  c4720
  c4721
  c4722
  c4723
  c4724
  c4725
  c4726
  c4727
  c4728
  c4729
  c4730
  c4738
  c4739
  c4749
  c475
  c4753
  c4757
  c476
  c4761
  c4765
  c4769
  c477
  c4773
  c4777
  c4781
  c4785
  c4789
  c479
  c4793
  c480
  c482
  c483
  c4836
  c4838
  c4840
  c4842
  c4844
  c4845
  c485
  c4852
  c4854
  c4856
  c4858
  c486
  c4860
  c4861
  c4869
  c4870
  c4871
  c4872
  c4873
  c4874
  c4875
  c4876
  c4877
  c4878
  c4879
  c488
  c4880
  c4881
  c4882
  c4883
  c4884
  c4885
  c4886
  c4887
  c4888
  c4889
  c489
  c4893
  c4897
  c4901
  c4905
  c4909
  c4913
  c4917
  c4921
  c4925
  c4929
  c4931
  c4941
  c4951
  c4960
  c4971
  c4975
  c498
  c4980
  c4992
  c4993
  c4994
  c4995
  c4998
  c4999
  c50
  c500
  c5000
  c5002
  c5003
  c5005
  c5006
  c5008
  c5009
  c5011
  c5012
  c502
  c5021
  c5031
  c5041
  c5050
  c5062
  c5074
  c5075
  c5076
  c5077
  c508
  c5080
  c5081
  c5082
  c5084
  c5085
  c5087
  c5088
  c5090
  c5091
  c5093
  c5094
  c5103
  c511
  c5113
  c5123
  c5132
  c514
  c5144
  c5156
  c5157
  c5158
  c5159
  c5162
  c5163
  c5164
  c5166
  c5167
  c5169
  c5170
  c5172
  c5173
  c5175
  c5176
  c518
  c5185
  c519
  c5195
  c520
  c5205
  c5214
  c5226
  c5238
  c5239
  c524
  c5240
  c5241
  c5244
  c5245
  c5246
  c5248
  c5249
  c5251
  c5252
  c5254
  c5255
  c5257
  c5258
  c5267
  c527
  c5277
  c5287
  c529
  c5296
  c530
  c5308
  c5320
  c5321
  c5322
  c5323
  c5326
  c5327
  c5328
  c5330
  c5331
  c5333
  c5334
  c5336
  c5337
  c5339
  c5340
  c5349
  c5359
  c5369
  c537
  c5378
  c5390
  c54
  c5402
  c5403
  c5404
  c5405
  c5408
  c5409
  c541
  c5410
  c5412
  c5413
  c5415
  c5416
  c5418
  c5419
  c5421
  c5422
  c543
  c5431
  c5432
  c5442
  c5446
  c5450
  c5454
  c5458
  c5462
  c5466
  c5470
  c5474
  c5478
  c5482
  c5486
  c549
  c551
  c5564
  c5565
  c5566
  c5567
  c5568
  c5569
  c557
  c5570
  c5571
  c5572
  c5573
  c5574
  c5575
  c558
  c5582
  c559
  c561
  c562
  c5625
  c5635
  c564
  c5645
  c565
  c5655
  c567
  c5673
  c568
  c5682
  c5691
  c570
  c571
  c5715
  c5725
  c5735
  c5745
  c5755
  c5764
  c5773
  c5797
  c58
  c580
  c5807
  c5817
  c5827
  c5837
  c5846
  c5855
  c5879
  c5889
  c5899
  c5909
  c591
  c5919
  c5928
  c5937
  c595
  c5961
  c5971
  c5981
  c599
  c5991
  c6
  c6001
  c6010
  c6019
  c603
  c6043
  c6053
  c6063
  c607
  c6073
  c6083
  c6092
  c6101
  c611
  c6124
  c6135
  c6139
  c6143
  c6147
  c615
  c6151
  c6155
  c6159
  c6163
  c6167
  c6171
  c6175
  c6179
  c619
  c62
  c623
  c6257
  c6258
  c6259
  c6260
  c6261
  c6262
  c6263
  c6264
  c6265
  c6266
  c6267
  c6268
  c627
  c6275
  c6277
  c6281
  c6285
  c6289
  c6293
  c6297
  c6300
  c6304
  c6308
  c631
  c6312
  c6316
  c6320
  c6325
  c6329
  c6333
  c6337
  c6341
  c6345
  c6349
  c635
  c6353
  c6357
  c6361
  c6365
  c6369
  c6372
  c6373
  c6376
  c6377
  c6380
  c6381
  c6384
  c6385
  c6388
  c6389
  c6392
  c6393
  c6396
  c6397
  c6400
  c6401
  c6404
  c6405
  c6408
  c6409
  c6412
  c6413
  c6416
  c6417
  c6420
  c6421
  c6422
  c6424
  c6425
  c6426
  c6428
  c6429
  c6430
  c6432
  c6433
  c6434
  c6436
  c6437
  c6438
  c6440
  c6441
  c6442
  c6444
  c6445
  c6446
  c6448
  c6449
  c6450
  c6452
  c6453
  c6454
  c6456
  c6457
  c6458
  c6460
  c6461
  c6462
  c6464
  c6465
  c6466
  c6468
  c6469
  c6470
  c6472
  c6473
  c6474
  c6476
  c6477
  c6478
  c6480
  c6481
  c6482
  c6484
  c6485
  c6486
  c6488
  c6489
  c6490
  c6492
  c6493
  c6494
  c6496
  c6497
  c6498
  c6500
  c6501
  c6502
  c6504
  c6505
  c6507
  c6508
  c6509
  c6511
  c6513
  c6514
  c6515
  c6516
  c6517
  c6518
  c6519
  c6520
  c6523
  c6525
  c6526
  c66
  c70
  c713
  c714
  c715
  c716
  c717
  c718
  c719
  c720
  c721
  c722
  c723
  c724
  c731
  c735
  c739
  c74
  c743
  c747
  c751
  c755
  c759
  c763
  c767
  c771
  c773
  c774
  c776
  c78
  c786
  c789
  c793
  c794
  c795
  c799
  c80
  c802
  c804
  c805
  c81
  c813
  c817
  c819
  c824
  c825
  c83
  c832
  c834
  c840
  c841
  c842
  c843
  c844
  c845
  c846
  c847
  c848
  c849
  c850
  c851
  c852
  c853
  c854
  c855
  c863
  c864
  c866
  c876
  c879
  c883
  c884
  c885
  c889
  c892
  c894
  c895
  c901
  c906
  c907
  c914
  c916
  c922
  c923
  c924
  c925
  c926
  c927
  c928
  c929
  c93
  c930
  c931
  c932
  c933
  c934
  c935
  c936
  c937
  c945
  c946
  c948
  c958
  c96
  c961
  c965
  c966
  c967
  c971
  c974
  c976
  c977
  c983
  c988
  c989
  c996
  c998 )
